%%% static parameters %%%
timespan = 1;
Fact = [2];
Distr1 = [5];
Distr2 = [10];
Clients_N = [100];
Demand_W = [15];
Lt0 = [4];
Lt1 = [4];
SS_ = [0.85];
DS_D = [8];
K = [200];
MA = [500];
%%% dynamic parameters %%%
lost_ratio_sales_ret_th = 0.19248838489484532;
lost_ratio_sales_ret_w = 68;
lost_ratio_sales_dis_th = 0.7872274885374597;
lost_ratio_sales_dis_w = 39;
lost_ratio_sales_fac_th = 0.4408756660931151;
lost_ratio_sales_fac_w = 93;
stock_customer_MA_mean_relative_th = 0.6532510182710156;
stock_customer_MA_mean_relative_w = 83;
stock_distributor_MA_mean_relative_th = 0.6742649080116014;
stock_distributor_MA_mean_relative_w = 11;
stock_retailer_MA_mean_relative_th = 0.9833732267285307;
stock_retailer_MA_mean_relative_w = 58;
stock_factory_MA_mean_relative_th = 0.6495427093736593;
stock_factory_MA_mean_relative_w = 37;
